; sanic :: corpus-study/repo_src/sanic/sanic/models/asgi.py :: EVENT 'MockProtocol._not_paused' :: structured encoding (verdict: unsat)
; Generated by snf-pipeline (encoder.py) -- run with any
; SMT-LIB2-compliant solver, e.g. `z3 sanic__corpus-study_repo_src_sanic_sanic_models_asgi.py__MockProtocol._not_paused__structured.smt2`
; benchmark generated from python API
(set-info :status unknown)
(declare-fun ewake_0 () Bool)
(assert
 (= ewake_0 true))
(assert
 (let (($x24 (not ewake_0)))
(or $x24)))
(check-sat)
